unsat
(:cnf-encoding-aux-vars 43
 :eliminated-vars       48
 :max-memory            19.04
 :memory                18.48
 :nlsat-conflicts       44
 :nlsat-decisions       231
 :nlsat-learned-added   43
 :nlsat-propagations    362
 :num-allocs            29347
 :rlimit-count          68283
 :time                  0.03
 :total-time            0.05)
